HUN,8,6,893
2,25,5,29,1,28,3,30,4,29,0,30
2,24,5,28,3,22,0,22,1,26,4,21
1,25,3,22,2,24,4,28,0,27,5,24
3,26,5,22,4,21,0,29,1,21,2,21
3,23,4,21,5,22,1,22,2,27,0,28
4,25,2,22,5,26,3,30,1,24,0,26
5,22,3,23,0,21,2,26,4,22,1,27
4,27,1,30,2,29,3,22,0,21,5,30
